13 13
9
3 3 3 10
3 4 3 6
3 5 0 0
3 6 3 0
3 7 6 6
3 8 0 5
4 3 9 6
4 4 9 9
7 6 6 0
% time elapsed: 0.11 s
% time elapsed: 0.11 s
%%%mzn-stat: initTime=0.00029
%%%mzn-stat: solveTime=0.007306
%%%mzn-stat: solutions=26
%%%mzn-stat: variables=19
%%%mzn-stat: propagators=14
%%%mzn-stat: propagations=12912
%%%mzn-stat: nodes=2342
%%%mzn-stat: failures=929
%%%mzn-stat: restarts=29
%%%mzn-stat: peakDepth=26
%%%mzn-stat-end
